100
30
20
32
3
29
29
15
11
26
2
7
8
30
1
5
5
10
16
23
13
6
6
24
13
1
15
22
31
30
29
16
13
3
9
27
31
6
24
22
3
14
22
4
7
29
6
19
15
25
18
26
25
15
6
31
16
32
3
3
4
18
31
8
19
3
9
6
32
26
7
4
19
22
7
32
31
10
32
18
20
25
17
3
28
8
31
32
6
2
24
21
13
26
14
20
20
4
27
5
7
1